Solver command line: ['C:\\Program Files\\IBM\\ILOG\\CPLEX_Studio2211\\cplex\\bin\\x64_win64\\cplex.exe']


Welcome to IBM(R) ILOG(R) CPLEX(R) Interactive Optimizer 22.1.1.0
  with Simplex, Mixed Integer & Barrier Optimizers
5725-A06 5725-A29 5724-Y48 5724-Y49 5724-Y54 5724-Y55 5655-Y21
Copyright IBM Corp. 1988, 2022.  All Rights Reserved.

Type 'help' for a list of available commands.
Type 'help' followed by a command name for more
information on commands.

CPLEX> Logfile 'cplex.log' closed.
Logfile 'C:\Users\wangy\Documents\GitHub\re_optimization\result_site_specific\tmpu7wqjg2m.cplex.log' open.
CPLEX> Problem 'C:\Users\wangy\Documents\GitHub\re_optimization\result_site_specific\tmpimbdnrdq.pyomo.lp' read.
Read time = 0.27 sec. (7.98 ticks)
CPLEX> Problem name         : C:\Users\wangy\Documents\GitHub\re_optimization\result_site_specific\tmpimbdnrdq.pyomo.lp
Objective sense      : Minimize
Variables            :   56997  [Nneg: 30685,  Free: 4406,  Binary: 6,
                                 Other: 21900]
Objective nonzeros   :      14
Linear constraints   :   78893  [Less: 42355,  Greater: 5,  Equal: 36533]
  Nonzeros           :  198744
  RHS nonzeros       :    3764

Variables            : Min LB: 0.000000         Max UB: 1.000000       
Objective nonzeros   : Min   : 1.000000         Max   : 1.000000       
Linear constraints   :
  Nonzeros           : Min   : 0.002694325      Max   : 100000.0       
  RHS nonzeros       : Min   : 0.1910000        Max   : 100000.0       
CPLEX> Version identifier: 22.1.1.0 | 2022-11-27 | 9160aff4d
Tried aggregator 3 times.
MIP Presolve eliminated 46453 rows and 26011 columns.
Aggregator did 10239 substitutions.
Reduced MIP has 22201 rows, 20747 columns, and 66466 nonzeros.
Reduced MIP has 2 binaries, 0 generals, 0 SOSs, and 0 indicators.
Presolve time = 0.19 sec. (206.03 ticks)
Found incumbent of value 257994.490165 after 0.30 sec. (297.21 ticks)
Probing time = 0.00 sec. (1.15 ticks)
Tried aggregator 1 time.
Detecting symmetries...
Reduced MIP has 22201 rows, 20747 columns, and 66466 nonzeros.
Reduced MIP has 2 binaries, 0 generals, 0 SOSs, and 0 indicators.
Presolve time = 0.05 sec. (42.88 ticks)
Probing time = 0.00 sec. (1.08 ticks)
MIP emphasis: balance optimality and feasibility.
MIP search method: dynamic search.
Parallel mode: deterministic, using up to 16 threads.
Root relaxation solution time = 1.28 sec. (655.78 ticks)

        Nodes                                         Cuts/
   Node  Left     Objective  IInf  Best Integer    Best Bound    ItCnt     Gap

*     0+    0                       257994.4902    -5943.7524           102.30%
      0     0     5372.8535     1   257994.4902     5372.8535       53   97.92%
*     0+    0                         6977.6154     5372.8535            23.00%
*     0+    0                         5658.4949     5372.8535             5.05%
      0     0        cutoff           5658.4949                    231    0.00%
Elapsed time = 1.94 sec. (1308.65 ticks, tree = 0.01 MB, solutions = 3)

Root node processing (before b&c):
  Real time             =    1.94 sec. (1311.43 ticks)
Parallel b&c, 16 threads:
  Real time             =    0.00 sec. (0.00 ticks)
  Sync time (average)   =    0.00 sec.
  Wait time (average)   =    0.00 sec.
                          ------------
Total (root+branch&cut) =    1.94 sec. (1311.43 ticks)

Solution pool: 3 solutions saved.

MIP - Integer optimal solution:  Objective =  5.6584948949e+03
Solution time =    1.94 sec.  Iterations = 231  Nodes = 0
Deterministic time = 1311.60 ticks  (677.13 ticks/sec)

CPLEX> Incumbent solution written to file 'C:\Users\wangy\Documents\GitHub\re_optimization\result_site_specific\tmp2jmhu4x1.cplex.sol'.
CPLEX> 
